3	25
965	861	567	101	796	324	277	684	796	628	35	558	575	963	720	276	74	281	701	692	387	355	858	837	43	
368	301	340	610	717	558	634	919	283	706	983	391	781	770	596	31	426	127	55	990	82	183	567	623	223	
1022	1022	1022	
